10 12

49    29    23    40   18    17    48    13    15    31
16    31    14    44   23    39    33    45    40    43
38    26    47    34   24    32    28    26    20    13
27    22    14    42   31    37    45    20    38    21
25    13    19    42   10    21    37    27    17    49
260   239   418   557  346   161   288   568   379   392
672   268   122   295  344   143   393   29    656   654
235   329   640   517  329   524   318   516   79    414
458   758   28    167  504   502   475   226   94    422
303   139   362   519  494   88    468   72    370   68
580   484   34    386  180   522   338   636   528   28
646   652   319   423  712   242   486   401   551   812

478   559   686   347  411   713   172   681   392   673
